NAME 
OBJSENSE MAX
ROWS
 N  OBJ
 L  packing[0]
 L  packing[1]
 L  packing[2]
 L  packing[3]
 L  packing[4]
 L  packing[5]
 L  packing[6]
 L  packing[7]
 L  packing[8]
 L  packing[9]
 L  packing[10]
 L  packing[11]
 L  packing[12]
 L  packing[13]
 L  packing[14]
 L  packing[15]
 L  packing[16]
 L  packing[17]
 L  packing[18]
 L  packing[19]
 L  packing[20]
 L  packing[21]
 L  packing[22]
 L  packing[23]
 L  packing[24]
 L  packing[25]
 L  packing[26]
 L  packing[27]
 L  packing[28]
 L  packing[29]
 L  packing[30]
 L  packing[31]
 L  packing[32]
 L  packing[33]
 L  packing[34]
 L  packing[35]
 L  packing[36]
 L  packing[37]
 L  packing[38]
 L  packing[39]
 L  packing[40]
 L  packing[41]
 L  packing[42]
 L  packing[43]
 L  packing[44]
 L  packing[45]
 L  packing[46]
 L  packing[47]
 L  packing[48]
 L  packing[49]
 L  R50     
COLUMNS
    MARKER    'MARKER'                 'INTORG'
    x[1]      OBJ       29
    x[1]      packing[1]  186
    x[1]      packing[4]  171
    x[1]      packing[5]  163
    x[1]      packing[6]  16
    x[1]      packing[7]  198
    x[1]      packing[8]  36
    x[1]      packing[9]  36
    x[1]      packing[11]  136
    x[1]      packing[12]  53
    x[1]      packing[13]  62
    x[1]      packing[14]  60
    x[1]      packing[15]  113
    x[1]      packing[16]  22
    x[1]      packing[17]  138
    x[1]      packing[18]  71
    x[1]      packing[20]  163
    x[1]      packing[21]  55
    x[1]      packing[22]  75
    x[1]      packing[23]  34
    x[1]      packing[24]  154
    x[1]      packing[26]  55
    x[1]      packing[27]  5
    x[1]      packing[29]  67
    x[1]      packing[30]  75
    x[1]      packing[32]  28
    x[1]      packing[33]  123
    x[1]      packing[34]  61
    x[1]      packing[37]  72
    x[1]      packing[38]  109
    x[1]      packing[39]  102
    x[1]      packing[40]  120
    x[1]      packing[42]  138
    x[1]      packing[43]  13
    x[1]      packing[45]  157
    x[1]      packing[46]  165
    x[1]      packing[48]  93
    x[1]      packing[49]  188
    x[2]      OBJ       157
    x[2]      packing[1]  71
    x[2]      packing[2]  149
    x[2]      packing[3]  120
    x[2]      packing[7]  146
    x[2]      packing[8]  30
    x[2]      packing[9]  68
    x[2]      packing[11]  77
    x[2]      packing[12]  132
    x[2]      packing[13]  2
    x[2]      packing[14]  139
    x[2]      packing[15]  151
    x[2]      packing[16]  135
    x[2]      packing[17]  68
    x[2]      packing[19]  108
    x[2]      packing[20]  146
    x[2]      packing[21]  191
    x[2]      packing[22]  128
    x[2]      packing[23]  48
    x[2]      packing[24]  136
    x[2]      packing[26]  51
    x[2]      packing[27]  73
    x[2]      packing[28]  189
    x[2]      packing[29]  144
    x[2]      packing[30]  33
    x[2]      packing[33]  68
    x[2]      packing[34]  169
    x[2]      packing[35]  172
    x[2]      packing[36]  60
    x[2]      packing[37]  62
    x[2]      packing[38]  70
    x[2]      packing[40]  127
    x[2]      packing[41]  165
    x[2]      packing[42]  185
    x[2]      packing[43]  40
    x[2]      packing[44]  119
    x[2]      packing[45]  179
    x[2]      packing[47]  147
    x[2]      packing[48]  58
    x[2]      packing[49]  167
    x[3]      OBJ       63
    x[3]      packing[0]  183
    x[3]      packing[1]  92
    x[3]      packing[2]  24
    x[3]      packing[3]  45
    x[3]      packing[4]  64
    x[3]      packing[5]  110
    x[3]      packing[6]  103
    x[3]      packing[7]  121
    x[3]      packing[9]  60
    x[3]      packing[10]  134
    x[3]      packing[12]  29
    x[3]      packing[13]  106
    x[3]      packing[14]  191
    x[3]      packing[17]  123
    x[3]      packing[20]  46
    x[3]      packing[22]  97
    x[3]      packing[23]  111
    x[3]      packing[24]  89
    x[3]      packing[29]  127
    x[3]      packing[30]  141
    x[3]      packing[31]  10
    x[3]      packing[32]  21
    x[3]      packing[33]  104
    x[3]      packing[34]  8
    x[3]      packing[35]  141
    x[3]      packing[36]  47
    x[3]      packing[37]  97
    x[3]      packing[38]  196
    x[3]      packing[39]  63
    x[3]      packing[40]  189
    x[3]      packing[41]  8
    x[3]      packing[43]  138
    x[3]      packing[44]  132
    x[3]      packing[45]  103
    x[3]      packing[46]  146
    x[3]      packing[48]  29
    x[3]      R50       1
    x[4]      OBJ       16
    x[4]      packing[0]  196
    x[4]      packing[1]  127
    x[4]      packing[2]  176
    x[4]      packing[3]  148
    x[4]      packing[4]  154
    x[4]      packing[6]  147
    x[4]      packing[7]  34
    x[4]      packing[9]  185
    x[4]      packing[10]  39
    x[4]      packing[11]  116
    x[4]      packing[13]  198
    x[4]      packing[15]  54
    x[4]      packing[16]  29
    x[4]      packing[17]  92
    x[4]      packing[18]  116
    x[4]      packing[20]  112
    x[4]      packing[21]  93
    x[4]      packing[22]  169
    x[4]      packing[23]  106
    x[4]      packing[25]  53
    x[4]      packing[26]  150
    x[4]      packing[27]  156
    x[4]      packing[28]  125
    x[4]      packing[29]  9
    x[4]      packing[30]  101
    x[4]      packing[31]  6
    x[4]      packing[32]  167
    x[4]      packing[33]  64
    x[4]      packing[34]  77
    x[4]      packing[35]  64
    x[4]      packing[36]  158
    x[4]      packing[37]  70
    x[4]      packing[38]  117
    x[4]      packing[39]  60
    x[4]      packing[41]  170
    x[4]      packing[43]  60
    x[4]      packing[44]  174
    x[4]      packing[45]  91
    x[4]      packing[46]  119
    x[4]      packing[49]  145
    x[5]      OBJ       147
    x[5]      packing[2]  140
    x[5]      packing[3]  57
    x[5]      packing[5]  179
    x[5]      packing[6]  136
    x[5]      packing[9]  24
    x[5]      packing[11]  37
    x[5]      packing[13]  42
    x[5]      packing[14]  176
    x[5]      packing[15]  93
    x[5]      packing[19]  124
    x[5]      packing[20]  112
    x[5]      packing[22]  123
    x[5]      packing[23]  135
    x[5]      packing[24]  125
    x[5]      packing[26]  174
    x[5]      packing[27]  166
    x[5]      packing[28]  51
    x[5]      packing[29]  82
    x[5]      packing[30]  49
    x[5]      packing[31]  64
    x[5]      packing[33]  138
    x[5]      packing[34]  82
    x[5]      packing[35]  75
    x[5]      packing[36]  47
    x[5]      packing[37]  50
    x[5]      packing[38]  96
    x[5]      packing[39]  104
    x[5]      packing[40]  86
    x[5]      packing[43]  106
    x[5]      packing[45]  160
    x[5]      packing[46]  182
    x[5]      packing[47]  12
    x[5]      packing[49]  153
    x[5]      R50       1
    x[6]      OBJ       133
    x[6]      packing[0]  86
    x[6]      packing[1]  171
    x[6]      packing[2]  179
    x[6]      packing[3]  179
    x[6]      packing[4]  175
    x[6]      packing[7]  176
    x[6]      packing[8]  16
    x[6]      packing[9]  156
    x[6]      packing[12]  165
    x[6]      packing[13]  86
    x[6]      packing[14]  3
    x[6]      packing[15]  91
    x[6]      packing[16]  171
    x[6]      packing[17]  51
    x[6]      packing[19]  160
    x[6]      packing[20]  108
    x[6]      packing[23]  85
    x[6]      packing[25]  89
    x[6]      packing[26]  186
    x[6]      packing[27]  71
    x[6]      packing[28]  105
    x[6]      packing[29]  42
    x[6]      packing[30]  23
    x[6]      packing[31]  64
    x[6]      packing[32]  109
    x[6]      packing[33]  45
    x[6]      packing[34]  101
    x[6]      packing[36]  140
    x[6]      packing[38]  134
    x[6]      packing[39]  138
    x[6]      packing[40]  97
    x[6]      packing[43]  101
    x[6]      packing[44]  39
    x[6]      packing[45]  132
    x[6]      packing[47]  15
    x[6]      packing[48]  198
    x[6]      packing[49]  145
    x[7]      OBJ       17
    x[7]      packing[0]  116
    x[7]      packing[2]  139
    x[7]      packing[3]  20
    x[7]      packing[4]  102
    x[7]      packing[8]  46
    x[7]      packing[10]  99
    x[7]      packing[11]  164
    x[7]      packing[12]  90
    x[7]      packing[13]  194
    x[7]      packing[14]  158
    x[7]      packing[15]  183
    x[7]      packing[16]  31
    x[7]      packing[18]  126
    x[7]      packing[24]  84
    x[7]      packing[25]  64
    x[7]      packing[26]  11
    x[7]      packing[27]  149
    x[7]      packing[28]  16
    x[7]      packing[29]  179
    x[7]      packing[30]  46
    x[7]      packing[33]  5
    x[7]      packing[34]  17
    x[7]      packing[36]  71
    x[7]      packing[37]  164
    x[7]      packing[39]  64
    x[7]      packing[40]  172
    x[7]      packing[41]  57
    x[7]      packing[44]  182
    x[7]      packing[45]  173
    x[7]      packing[46]  138
    x[7]      packing[47]  104
    x[7]      packing[48]  114
    x[7]      packing[49]  74
    x[8]      OBJ       132
    x[8]      packing[0]  102
    x[8]      packing[1]  86
    x[8]      packing[3]  169
    x[8]      packing[4]  76
    x[8]      packing[5]  24
    x[8]      packing[6]  171
    x[8]      packing[7]  162
    x[8]      packing[10]  148
    x[8]      packing[12]  125
    x[8]      packing[13]  145
    x[8]      packing[14]  181
    x[8]      packing[15]  92
    x[8]      packing[16]  174
    x[8]      packing[17]  172
    x[8]      packing[18]  162
    x[8]      packing[19]  109
    x[8]      packing[20]  1
    x[8]      packing[21]  45
    x[8]      packing[22]  180
    x[8]      packing[23]  52
    x[8]      packing[24]  105
    x[8]      packing[26]  179
    x[8]      packing[27]  15
    x[8]      packing[28]  103
    x[8]      packing[29]  150
    x[8]      packing[30]  71
    x[8]      packing[31]  6
    x[8]      packing[35]  130
    x[8]      packing[36]  122
    x[8]      packing[37]  111
    x[8]      packing[38]  97
    x[8]      packing[39]  154
    x[8]      packing[40]  158
    x[8]      packing[42]  60
    x[8]      packing[43]  197
    x[8]      packing[44]  3
    x[8]      packing[45]  193
    x[8]      packing[46]  175
    x[8]      packing[48]  158
    x[8]      packing[49]  32
    x[9]      OBJ       161
    x[9]      packing[0]  178
    x[9]      packing[1]  100
    x[9]      packing[2]  116
    x[9]      packing[3]  96
    x[9]      packing[4]  140
    x[9]      packing[5]  95
    x[9]      packing[8]  145
    x[9]      packing[9]  50
    x[9]      packing[11]  196
    x[9]      packing[12]  40
    x[9]      packing[13]  89
    x[9]      packing[15]  80
    x[9]      packing[16]  18
    x[9]      packing[17]  81
    x[9]      packing[19]  71
    x[9]      packing[21]  116
    x[9]      packing[22]  34
    x[9]      packing[23]  94
    x[9]      packing[24]  178
    x[9]      packing[25]  158
    x[9]      packing[26]  148
    x[9]      packing[27]  102
    x[9]      packing[28]  158
    x[9]      packing[30]  167
    x[9]      packing[31]  168
    x[9]      packing[32]  84
    x[9]      packing[33]  58
    x[9]      packing[35]  121
    x[9]      packing[36]  12
    x[9]      packing[38]  126
    x[9]      packing[39]  195
    x[9]      packing[40]  2
    x[9]      packing[41]  171
    x[9]      packing[43]  178
    x[9]      packing[44]  78
    x[9]      packing[45]  139
    x[9]      packing[46]  163
    x[9]      packing[48]  152
    x[10]     OBJ       118
    x[10]     packing[0]  179
    x[10]     packing[2]  190
    x[10]     packing[4]  49
    x[10]     packing[5]  20
    x[10]     packing[6]  57
    x[10]     packing[7]  63
    x[10]     packing[8]  29
    x[10]     packing[10]  16
    x[10]     packing[11]  127
    x[10]     packing[14]  78
    x[10]     packing[16]  114
    x[10]     packing[17]  179
    x[10]     packing[18]  86
    x[10]     packing[19]  165
    x[10]     packing[20]  183
    x[10]     packing[24]  112
    x[10]     packing[25]  80
    x[10]     packing[26]  159
    x[10]     packing[27]  134
    x[10]     packing[28]  150
    x[10]     packing[29]  20
    x[10]     packing[30]  183
    x[10]     packing[34]  44
    x[10]     packing[35]  66
    x[10]     packing[36]  64
    x[10]     packing[37]  58
    x[10]     packing[38]  76
    x[10]     packing[39]  139
    x[10]     packing[42]  157
    x[10]     packing[43]  188
    x[10]     packing[44]  163
    x[10]     packing[45]  175
    x[10]     packing[46]  148
    x[10]     packing[47]  165
    x[10]     packing[48]  116
    x[10]     packing[49]  103
    x[11]     OBJ       154
    x[11]     packing[0]  39
    x[11]     packing[1]  123
    x[11]     packing[2]  108
    x[11]     packing[4]  14
    x[11]     packing[5]  107
    x[11]     packing[7]  25
    x[11]     packing[8]  76
    x[11]     packing[10]  95
    x[11]     packing[12]  87
    x[11]     packing[13]  30
    x[11]     packing[14]  181
    x[11]     packing[15]  40
    x[11]     packing[16]  125
    x[11]     packing[17]  191
    x[11]     packing[19]  172
    x[11]     packing[20]  90
    x[11]     packing[21]  78
    x[11]     packing[22]  122
    x[11]     packing[23]  169
    x[11]     packing[24]  1
    x[11]     packing[25]  161
    x[11]     packing[27]  100
    x[11]     packing[28]  6
    x[11]     packing[29]  39
    x[11]     packing[30]  96
    x[11]     packing[31]  83
    x[11]     packing[32]  105
    x[11]     packing[34]  183
    x[11]     packing[35]  31
    x[11]     packing[36]  184
    x[11]     packing[37]  7
    x[11]     packing[38]  98
    x[11]     packing[39]  16
    x[11]     packing[40]  178
    x[11]     packing[42]  37
    x[11]     packing[43]  108
    x[11]     packing[44]  94
    x[11]     packing[45]  49
    x[11]     packing[47]  54
    x[11]     packing[48]  55
    x[11]     packing[49]  131
    x[12]     OBJ       35
    x[12]     packing[0]  59
    x[12]     packing[3]  134
    x[12]     packing[5]  45
    x[12]     packing[6]  175
    x[12]     packing[7]  40
    x[12]     packing[8]  191
    x[12]     packing[9]  162
    x[12]     packing[10]  12
    x[12]     packing[11]  74
    x[12]     packing[12]  85
    x[12]     packing[13]  58
    x[12]     packing[15]  118
    x[12]     packing[16]  159
    x[12]     packing[17]  139
    x[12]     packing[18]  50
    x[12]     packing[19]  145
    x[12]     packing[20]  92
    x[12]     packing[21]  31
    x[12]     packing[23]  187
    x[12]     packing[24]  87
    x[12]     packing[25]  143
    x[12]     packing[26]  154
    x[12]     packing[27]  7
    x[12]     packing[28]  47
    x[12]     packing[29]  195
    x[12]     packing[30]  183
    x[12]     packing[31]  143
    x[12]     packing[32]  45
    x[12]     packing[33]  97
    x[12]     packing[34]  184
    x[12]     packing[36]  152
    x[12]     packing[37]  33
    x[12]     packing[38]  160
    x[12]     packing[39]  79
    x[12]     packing[40]  55
    x[12]     packing[41]  63
    x[12]     packing[42]  166
    x[12]     packing[43]  30
    x[12]     packing[44]  12
    x[12]     packing[46]  91
    x[12]     packing[47]  184
    x[12]     packing[48]  173
    x[12]     packing[49]  48
    x[13]     OBJ       69
    x[13]     packing[0]  169
    x[13]     packing[1]  145
    x[13]     packing[2]  180
    x[13]     packing[4]  81
    x[13]     packing[6]  119
    x[13]     packing[7]  137
    x[13]     packing[8]  64
    x[13]     packing[11]  134
    x[13]     packing[12]  143
    x[13]     packing[13]  87
    x[13]     packing[16]  113
    x[13]     packing[18]  121
    x[13]     packing[20]  83
    x[13]     packing[21]  194
    x[13]     packing[24]  161
    x[13]     packing[25]  46
    x[13]     packing[26]  133
    x[13]     packing[28]  62
    x[13]     packing[29]  75
    x[13]     packing[30]  65
    x[13]     packing[31]  54
    x[13]     packing[32]  70
    x[13]     packing[35]  116
    x[13]     packing[36]  10
    x[13]     packing[37]  34
    x[13]     packing[38]  190
    x[13]     packing[40]  42
    x[13]     packing[41]  83
    x[13]     packing[43]  172
    x[13]     packing[44]  102
    x[13]     packing[45]  176
    x[13]     packing[46]  38
    x[13]     packing[47]  114
    x[13]     packing[48]  60
    x[13]     packing[49]  7
    x[14]     OBJ       72
    x[14]     packing[0]  37
    x[14]     packing[1]  49
    x[14]     packing[2]  53
    x[14]     packing[4]  74
    x[14]     packing[8]  133
    x[14]     packing[9]  34
    x[14]     packing[10]  54
    x[14]     packing[11]  192
    x[14]     packing[12]  3
    x[14]     packing[14]  191
    x[14]     packing[18]  9
    x[14]     packing[20]  174
    x[14]     packing[22]  67
    x[14]     packing[23]  189
    x[14]     packing[24]  108
    x[14]     packing[25]  143
    x[14]     packing[26]  165
    x[14]     packing[27]  118
    x[14]     packing[28]  63
    x[14]     packing[30]  74
    x[14]     packing[34]  72
    x[14]     packing[36]  95
    x[14]     packing[37]  133
    x[14]     packing[38]  107
    x[14]     packing[40]  159
    x[14]     packing[41]  107
    x[14]     packing[43]  133
    x[14]     packing[45]  43
    x[14]     packing[46]  58
    x[14]     packing[47]  76
    x[14]     packing[49]  154
    x[15]     OBJ       67
    x[15]     packing[0]  73
    x[15]     packing[3]  84
    x[15]     packing[4]  194
    x[15]     packing[7]  146
    x[15]     packing[8]  40
    x[15]     packing[9]  165
    x[15]     packing[10]  27
    x[15]     packing[11]  126
    x[15]     packing[12]  50
    x[15]     packing[13]  51
    x[15]     packing[14]  100
    x[15]     packing[16]  15
    x[15]     packing[17]  111
    x[15]     packing[18]  11
    x[15]     packing[19]  1
    x[15]     packing[21]  95
    x[15]     packing[22]  97
    x[15]     packing[23]  103
    x[15]     packing[24]  66
    x[15]     packing[25]  125
    x[15]     packing[26]  144
    x[15]     packing[27]  155
    x[15]     packing[28]  51
    x[15]     packing[30]  60
    x[15]     packing[31]  120
    x[15]     packing[32]  36
    x[15]     packing[34]  199
    x[15]     packing[35]  180
    x[15]     packing[36]  40
    x[15]     packing[37]  131
    x[15]     packing[38]  180
    x[15]     packing[39]  39
    x[15]     packing[41]  49
    x[15]     packing[42]  55
    x[15]     packing[43]  131
    x[15]     packing[44]  157
    x[15]     packing[46]  194
    x[15]     packing[47]  47
    x[15]     packing[48]  165
    x[16]     OBJ       172
    x[16]     packing[0]  11
    x[16]     packing[1]  93
    x[16]     packing[3]  182
    x[16]     packing[4]  59
    x[16]     packing[5]  11
    x[16]     packing[7]  57
    x[16]     packing[9]  146
    x[16]     packing[10]  153
    x[16]     packing[11]  3
    x[16]     packing[12]  114
    x[16]     packing[13]  90
    x[16]     packing[15]  112
    x[16]     packing[16]  23
    x[16]     packing[17]  95
    x[16]     packing[18]  105
    x[16]     packing[19]  75
    x[16]     packing[21]  115
    x[16]     packing[22]  181
    x[16]     packing[23]  29
    x[16]     packing[24]  136
    x[16]     packing[25]  60
    x[16]     packing[26]  61
    x[16]     packing[27]  127
    x[16]     packing[28]  57
    x[16]     packing[30]  159
    x[16]     packing[31]  152
    x[16]     packing[32]  106
    x[16]     packing[33]  55
    x[16]     packing[34]  9
    x[16]     packing[35]  90
    x[16]     packing[36]  22
    x[16]     packing[39]  26
    x[16]     packing[41]  157
    x[16]     packing[42]  174
    x[16]     packing[43]  79
    x[16]     packing[44]  184
    x[16]     packing[45]  52
    x[16]     packing[47]  11
    x[16]     packing[48]  10
    x[17]     OBJ       136
    x[17]     packing[0]  127
    x[17]     packing[1]  50
    x[17]     packing[2]  185
    x[17]     packing[3]  163
    x[17]     packing[4]  72
    x[17]     packing[5]  123
    x[17]     packing[7]  59
    x[17]     packing[8]  129
    x[17]     packing[10]  180
    x[17]     packing[11]  12
    x[17]     packing[12]  187
    x[17]     packing[13]  199
    x[17]     packing[16]  112
    x[17]     packing[17]  41
    x[17]     packing[18]  179
    x[17]     packing[19]  8
    x[17]     packing[21]  180
    x[17]     packing[22]  176
    x[17]     packing[23]  79
    x[17]     packing[25]  12
    x[17]     packing[30]  49
    x[17]     packing[31]  123
    x[17]     packing[32]  27
    x[17]     packing[33]  158
    x[17]     packing[34]  130
    x[17]     packing[37]  80
    x[17]     packing[38]  76
    x[17]     packing[39]  193
    x[17]     packing[40]  28
    x[17]     packing[41]  188
    x[17]     packing[42]  60
    x[17]     packing[44]  24
    x[17]     packing[46]  7
    x[17]     packing[48]  142
    x[17]     packing[49]  146
    x[17]     R50       1
    x[18]     OBJ       193
    x[18]     packing[0]  112
    x[18]     packing[1]  129
    x[18]     packing[2]  125
    x[18]     packing[3]  45
    x[18]     packing[4]  89
    x[18]     packing[6]  20
    x[18]     packing[7]  66
    x[18]     packing[9]  191
    x[18]     packing[10]  18
    x[18]     packing[11]  148
    x[18]     packing[12]  141
    x[18]     packing[13]  105
    x[18]     packing[14]  110
    x[18]     packing[15]  162
    x[18]     packing[16]  199
    x[18]     packing[18]  103
    x[18]     packing[19]  189
    x[18]     packing[20]  180
    x[18]     packing[21]  122
    x[18]     packing[22]  156
    x[18]     packing[24]  13
    x[18]     packing[25]  103
    x[18]     packing[27]  62
    x[18]     packing[28]  90
    x[18]     packing[29]  173
    x[18]     packing[30]  181
    x[18]     packing[31]  43
    x[18]     packing[33]  45
    x[18]     packing[34]  152
    x[18]     packing[37]  132
    x[18]     packing[38]  104
    x[18]     packing[41]  173
    x[18]     packing[42]  91
    x[18]     packing[44]  130
    x[18]     packing[45]  68
    x[18]     packing[47]  51
    x[18]     packing[48]  9
    x[19]     OBJ       200
    x[19]     packing[1]  183
    x[19]     packing[2]  26
    x[19]     packing[3]  146
    x[19]     packing[4]  92
    x[19]     packing[5]  91
    x[19]     packing[6]  83
    x[19]     packing[7]  27
    x[19]     packing[9]  112
    x[19]     packing[12]  153
    x[19]     packing[13]  25
    x[19]     packing[14]  107
    x[19]     packing[15]  132
    x[19]     packing[16]  152
    x[19]     packing[18]  139
    x[19]     packing[19]  132
    x[19]     packing[20]  54
    x[19]     packing[21]  57
    x[19]     packing[22]  137
    x[19]     packing[24]  64
    x[19]     packing[25]  13
    x[19]     packing[27]  191
    x[19]     packing[28]  22
    x[19]     packing[29]  7
    x[19]     packing[30]  174
    x[19]     packing[31]  66
    x[19]     packing[32]  182
    x[19]     packing[33]  138
    x[19]     packing[34]  87
    x[19]     packing[35]  181
    x[19]     packing[36]  91
    x[19]     packing[37]  174
    x[19]     packing[38]  188
    x[19]     packing[39]  167
    x[19]     packing[41]  120
    x[19]     packing[42]  37
    x[19]     packing[43]  19
    x[19]     packing[44]  168
    x[19]     packing[45]  61
    x[19]     packing[46]  66
    x[19]     packing[48]  70
    x[19]     R50       1
    x[20]     OBJ       131
    x[20]     packing[0]  107
    x[20]     packing[1]  141
    x[20]     packing[2]  182
    x[20]     packing[4]  199
    x[20]     packing[6]  124
    x[20]     packing[7]  144
    x[20]     packing[8]  184
    x[20]     packing[10]  68
    x[20]     packing[11]  153
    x[20]     packing[12]  143
    x[20]     packing[13]  189
    x[20]     packing[14]  58
    x[20]     packing[15]  168
    x[20]     packing[16]  62
    x[20]     packing[18]  15
    x[20]     packing[20]  39
    x[20]     packing[21]  18
    x[20]     packing[22]  96
    x[20]     packing[24]  71
    x[20]     packing[25]  82
    x[20]     packing[26]  24
    x[20]     packing[28]  189
    x[20]     packing[30]  12
    x[20]     packing[31]  114
    x[20]     packing[32]  91
    x[20]     packing[34]  99
    x[20]     packing[35]  48
    x[20]     packing[36]  70
    x[20]     packing[37]  151
    x[20]     packing[38]  143
    x[20]     packing[39]  39
    x[20]     packing[40]  94
    x[20]     packing[41]  112
    x[20]     packing[42]  112
    x[20]     packing[45]  29
    x[20]     packing[46]  29
    x[20]     packing[47]  116
    x[20]     packing[48]  141
    MARKER    'MARKER'                 'INTEND'
RHS
    RHS1      packing[0]  887
    RHS1      packing[1]  873
    RHS1      packing[2]  986
    RHS1      packing[3]  794
    RHS1      packing[4]  903
    RHS1      packing[5]  484
    RHS1      packing[6]  576
    RHS1      packing[7]  801
    RHS1      packing[8]  560
    RHS1      packing[9]  695
    RHS1      packing[10]  522
    RHS1      packing[11]  848
    RHS1      packing[12]  870
    RHS1      packing[13]  879
    RHS1      packing[14]  867
    RHS1      packing[15]  795
    RHS1      packing[16]  827
    RHS1      packing[17]  741
    RHS1      packing[18]  647
    RHS1      packing[19]  730
    RHS1      packing[20]  792
    RHS1      packing[21]  695
    RHS1      packing[22]  919
    RHS1      packing[23]  711
    RHS1      packing[24]  845
    RHS1      packing[25]  666
    RHS1      packing[26]  897
    RHS1      packing[27]  816
    RHS1      packing[28]  742
    RHS1      packing[29]  655
    RHS1      packing[30]  971
    RHS1      packing[31]  608
    RHS1      packing[32]  536
    RHS1      packing[33]  549
    RHS1      packing[34]  837
    RHS1      packing[35]  708
    RHS1      packing[36]  693
    RHS1      packing[37]  780
    RHS1      packing[38]  1134
    RHS1      packing[39]  789
    RHS1      packing[40]  754
    RHS1      packing[41]  812
    RHS1      packing[42]  636
    RHS1      packing[43]  847
    RHS1      packing[44]  881
    RHS1      packing[45]  990
    RHS1      packing[46]  860
    RHS1      packing[47]  548
    RHS1      packing[48]  872
    RHS1      packing[49]  747
    RHS1      R50       3
BOUNDS
 BV BND1      x[1]    
 BV BND1      x[2]    
 BV BND1      x[3]    
 BV BND1      x[4]    
 BV BND1      x[5]    
 BV BND1      x[6]    
 BV BND1      x[7]    
 BV BND1      x[8]    
 BV BND1      x[9]    
 BV BND1      x[10]   
 BV BND1      x[11]   
 BV BND1      x[12]   
 BV BND1      x[13]   
 BV BND1      x[14]   
 BV BND1      x[15]   
 BV BND1      x[16]   
 BV BND1      x[17]   
 BV BND1      x[18]   
 BV BND1      x[19]   
 BV BND1      x[20]   
ENDATA
